NAME : rnd52_20.tsp
TYPE : TSP
DIMENSION : 20
EDGE_WEIGHT_TYPE : EUC_2D
NODE_COORD_SECTION
0 909 233
1 873 626
2 549 291
3 757 343
4 51 888
5 798 730
6 318 658
7 152 622
8 118 125
9 170 904
10 588 874
11 91 691
12 597 760
13 578 934
14 669 677
15 654 23
16 355 620
17 807 562
18 770 977
19 85 913
